(set-logic QF_NRA)
(set-info :source |Benchmarks generated from hycomp (https://es-static.fbk.eu/tools/hycomp/). BMC instances of non-linear hybrid automata taken from: Alessandro Cimatti, Sergio Mover, Stefano Tonetta, A quantifier-free SMT encoding of non-linear hybrid automata, FMCAD 2012 and Alessandro Cimatti, Sergio Mover, Stefano Tonetta, Quantier-free encoding of invariants for Hybrid Systems, Formal Methods in System Design. This instance solves a BMC problem of depth 2 and uses the quantifier free encoding encoding. Contacts: Sergio Mover (mover@fbk.eu), Stefano Tonetta (tonettas@fbk.eu), Alessandro Cimatti (cimatti@fbk.eu).|)
(set-info :smt-lib-version 2.0)
(set-info :category "industrial")
(set-info :status unsat)
;; MathSAT API call trace
;; generated on Mon Mar 19 10:44:07 2012
(declare-fun b.y__AT1 () Real)
(declare-fun b.EVENT.0__AT0 () Bool)
(declare-fun b.event_is_timed__AT2 () Bool)
(declare-fun b.speed_y__AT0 () Real)
(declare-fun b.event_is_timed__AT0 () Bool)
(declare-fun b.time__AT2 () Real)
(declare-fun b.y__AT2 () Real)
(declare-fun b.delta__AT2 () Real)
(declare-fun b.counter.0__AT2 () Bool)
(declare-fun b.counter.3__AT0 () Bool)
(declare-fun b.x__AT2 () Real)
(declare-fun b.EVENT.0__AT2 () Bool)
(declare-fun b.counter.1__AT2 () Bool)
(declare-fun b.speed_x__AT1 () Real)
(declare-fun b.EVENT.1__AT2 () Bool)
(declare-fun b.counter.2__AT2 () Bool)
(declare-fun b.time__AT1 () Real)
(declare-fun b.counter.3__AT2 () Bool)
(declare-fun b.x__AT1 () Real)
(declare-fun b.bool_atom__AT2 () Bool)
(declare-fun b.event_is_timed__AT1 () Bool)
(declare-fun b.counter.0__AT1 () Bool)
(declare-fun b.EVENT.1__AT0 () Bool)
(declare-fun b.speed_x__AT2 () Real)
(declare-fun b.speed_loss__AT0 () Real)
(declare-fun b.counter.1__AT1 () Bool)
(declare-fun b.speed_x__AT0 () Real)
(declare-fun b.speed_y__AT2 () Real)
(declare-fun b.counter.2__AT1 () Bool)
(declare-fun b.time__AT0 () Real)
(declare-fun b.counter.2__AT0 () Bool)
(declare-fun b.counter.3__AT1 () Bool)
(declare-fun b.bool_atom__AT1 () Bool)
(declare-fun b.x__AT0 () Real)
(declare-fun b.speed_y__AT1 () Real)
(declare-fun b.delta__AT1 () Real)
(declare-fun b.bool_atom__AT0 () Bool)
(declare-fun b.y__AT0 () Real)
(declare-fun b.EVENT.1__AT1 () Bool)
(declare-fun b.EVENT.0__AT1 () Bool)
(declare-fun b.counter.0__AT0 () Bool)
(declare-fun b.delta__AT0 () Real)
(declare-fun b.counter.1__AT0 () Bool)
(assert (let ((.def_820 (* (- (/ 49 10)) b.speed_y__AT2)))
(let ((.def_851 (* 3.0 .def_820)))
(let ((.def_919 (* (- 1.0) .def_851)))
(let ((.def_940 (* 2.0 .def_919)))
(let ((.def_949 (* (- 1.0) .def_940)))
(let ((.def_950 (* b.delta__AT2 .def_949)))
(let ((.def_951 (* (- 50.0) .def_950)))
(let ((.def_815 (* b.delta__AT2 b.delta__AT2)))
(let ((.def_878 (* (- 7203.0) .def_815)))
(let ((.def_952 (+ .def_878 .def_951)))
(let ((.def_690 (* b.speed_y__AT2 b.speed_y__AT2)))
(let ((.def_880 (* (- 50.0) .def_690)))
(let ((.def_953 (+ .def_880 .def_952)))
(let ((.def_882 (* 490.0 b.y__AT2)))
(let ((.def_954 (+ .def_882 .def_953)))
(let ((.def_955 (<= .def_954 0.0 )))
(let ((.def_888 (* (- 5.0) .def_690)))
(let ((.def_889 (* 49.0 b.y__AT2)))
(let ((.def_891 (+ .def_889 .def_888)))
(let ((.def_892 (<= .def_891 0.0 )))
(let ((.def_956 (and .def_892 .def_955)))
(let ((.def_895 (* (- 49.0) b.delta__AT2)))
(let ((.def_896 (* 5.0 b.speed_y__AT2)))
(let ((.def_898 (+ .def_896 .def_895)))
(let ((.def_902 (<= 0.0 .def_898)))
(let ((.def_901 (<= 0.0 b.speed_y__AT2)))
(let ((.def_903 (and .def_901 .def_902)))
(let ((.def_899 (<= .def_898 0.0 )))
(let ((.def_894 (<= b.speed_y__AT2 0.0 )))
(let ((.def_900 (and .def_894 .def_899)))
(let ((.def_904 (or .def_900 .def_903)))
(let ((.def_957 (and .def_904 .def_956)))
(let ((.def_941 (* b.delta__AT2 .def_940)))
(let ((.def_942 (* 50.0 .def_941)))
(let ((.def_943 (+ .def_878 .def_942)))
(let ((.def_944 (+ .def_880 .def_943)))
(let ((.def_945 (+ .def_882 .def_944)))
(let ((.def_946 (<= 0.0 .def_945)))
(let ((.def_913 (<= 0.0 .def_891)))
(let ((.def_947 (and .def_913 .def_946)))
(let ((.def_948 (and .def_904 .def_947)))
(let ((.def_958 (or .def_948 .def_957)))
(let ((.def_827 (* (- (/ 49 10)) b.y__AT2)))
(let ((.def_858 (* 2.0 .def_827)))
(let ((.def_927 (* (- 1.0) .def_858)))
(let ((.def_928 (* b.delta__AT2 .def_927)))
(let ((.def_929 (* (- 50.0) .def_928)))
(let ((.def_854 (* 2.0 .def_690)))
(let ((.def_923 (* (- 1.0) .def_854)))
(let ((.def_924 (* b.delta__AT2 .def_923)))
(let ((.def_925 (* (- 25.0) .def_924)))
(let ((.def_933 (+ .def_925 .def_929)))
(let ((.def_920 (* .def_815 .def_919)))
(let ((.def_921 (* (- 50.0) .def_920)))
(let ((.def_934 (+ .def_921 .def_933)))
(let ((.def_831 (* b.y__AT2 b.speed_y__AT2)))
(let ((.def_864 (* 50.0 .def_831)))
(let ((.def_935 (+ .def_864 .def_934)))
(let ((.def_816 (* b.delta__AT2 .def_815)))
(let ((.def_862 (* 2401.0 .def_816)))
(let ((.def_936 (+ .def_862 .def_935)))
(let ((.def_866 (* 25.0 b.speed_x__AT2)))
(let ((.def_937 (+ .def_866 .def_936)))
(let ((.def_938 (<= .def_937 0.0 )))
(let ((.def_848 (* 2.0 .def_831)))
(let ((.def_849 (+ b.speed_x__AT2 .def_848)))
(let ((.def_918 (<= .def_849 0.0 )))
(let ((.def_939 (and .def_918 .def_938)))
(let ((.def_959 (and .def_939 .def_958)))
(let ((.def_875 (* 2.0 .def_851)))
(let ((.def_906 (* (- 1.0) .def_875)))
(let ((.def_907 (* b.delta__AT2 .def_906)))
(let ((.def_908 (* 50.0 .def_907)))
(let ((.def_909 (+ .def_878 .def_908)))
(let ((.def_910 (+ .def_880 .def_909)))
(let ((.def_911 (+ .def_882 .def_910)))
(let ((.def_912 (<= 0.0 .def_911)))
(let ((.def_914 (and .def_912 .def_913)))
(let ((.def_915 (and .def_904 .def_914)))
(let ((.def_876 (* b.delta__AT2 .def_875)))
(let ((.def_877 (* (- 50.0) .def_876)))
(let ((.def_884 (+ .def_878 .def_877)))
(let ((.def_885 (+ .def_880 .def_884)))
(let ((.def_886 (+ .def_882 .def_885)))
(let ((.def_887 (<= .def_886 0.0 )))
(let ((.def_893 (and .def_887 .def_892)))
(let ((.def_905 (and .def_893 .def_904)))
(let ((.def_916 (or .def_905 .def_915)))
(let ((.def_859 (* b.delta__AT2 .def_858)))
(let ((.def_860 (* 50.0 .def_859)))
(let ((.def_855 (* b.delta__AT2 .def_854)))
(let ((.def_856 (* 25.0 .def_855)))
(let ((.def_868 (+ .def_856 .def_860)))
(let ((.def_852 (* .def_815 .def_851)))
(let ((.def_853 (* 50.0 .def_852)))
(let ((.def_869 (+ .def_853 .def_868)))
(let ((.def_870 (+ .def_864 .def_869)))
(let ((.def_871 (+ .def_862 .def_870)))
(let ((.def_872 (+ .def_866 .def_871)))
(let ((.def_873 (<= 0.0 .def_872)))
(let ((.def_850 (<= 0.0 .def_849)))
(let ((.def_874 (and .def_850 .def_873)))
(let ((.def_917 (and .def_874 .def_916)))
(let ((.def_960 (or .def_917 .def_959)))
(let ((.def_832 (* b.delta__AT2 .def_831)))
(let ((.def_833 (* 200.0 .def_832)))
(let ((.def_828 (* .def_815 .def_827)))
(let ((.def_829 (* 200.0 .def_828)))
(let ((.def_839 (+ .def_829 .def_833)))
(let ((.def_824 (* .def_690 .def_815)))
(let ((.def_825 (* 100.0 .def_824)))
(let ((.def_840 (+ .def_825 .def_839)))
(let ((.def_821 (* .def_816 .def_820)))
(let ((.def_822 (* 200.0 .def_821)))
(let ((.def_841 (+ .def_822 .def_840)))
(let ((.def_817 (* b.delta__AT2 .def_816)))
(let ((.def_818 (* 2401.0 .def_817)))
(let ((.def_842 (+ .def_818 .def_841)))
(let ((.def_813 (* b.speed_x__AT2 b.delta__AT2)))
(let ((.def_814 (* 100.0 .def_813)))
(let ((.def_843 (+ .def_814 .def_842)))
(let ((.def_793 (* b.y__AT2 b.y__AT2)))
(let ((.def_835 (* 100.0 .def_793)))
(let ((.def_844 (+ .def_835 .def_843)))
(let ((.def_837 (* 100.0 b.x__AT2)))
(let ((.def_845 (+ .def_837 .def_844)))
(let ((.def_846 (<= 0.0 .def_845)))
(let ((.def_794 (+ b.x__AT2 .def_793)))
(let ((.def_795 (<= 0.0 .def_794)))
(let ((.def_847 (and .def_795 .def_846)))
(let ((.def_961 (and .def_847 .def_960)))
(let ((.def_77 (<= b.speed_loss__AT0 (/ 1 2))))
(let ((.def_74 (<= (/ 1 10) b.speed_loss__AT0)))
(let ((.def_78 (and .def_74 .def_77)))
(let ((.def_962 (and .def_78 .def_961)))
(let ((.def_359 (not b.counter.0__AT1)))
(let ((.def_805 (or b.counter.1__AT1 .def_359)))
(let ((.def_806 (or b.counter.2__AT1 .def_805)))
(let ((.def_349 (not b.counter.1__AT1)))
(let ((.def_800 (and .def_349 .def_359)))
(let ((.def_354 (not b.counter.2__AT1)))
(let ((.def_804 (or .def_354 .def_800)))
(let ((.def_807 (and .def_804 .def_806)))
(let ((.def_808 (or b.counter.3__AT1 .def_807)))
(let ((.def_801 (or b.counter.2__AT1 .def_800)))
(let ((.def_799 (or .def_349 .def_354)))
(let ((.def_802 (and .def_799 .def_801)))
(let ((.def_368 (not b.counter.3__AT1)))
(let ((.def_803 (or .def_368 .def_802)))
(let ((.def_809 (and .def_803 .def_808)))
(let ((.def_796 (and .def_78 .def_795)))
(let ((.def_790 (not b.EVENT.0__AT2)))
(let ((.def_788 (not b.EVENT.1__AT2)))
(let ((.def_791 (or .def_788 .def_790)))
(let ((.def_9 (not b.counter.0__AT2)))
(let ((.def_6 (not b.counter.1__AT2)))
(let ((.def_781 (or .def_6 .def_9)))
(let ((.def_785 (or b.counter.3__AT2 .def_781)))
(let ((.def_782 (or b.counter.2__AT2 .def_781)))
(let ((.def_4 (not b.counter.2__AT2)))
(let ((.def_780 (or .def_4 .def_9)))
(let ((.def_783 (and .def_780 .def_782)))
(let ((.def_14 (not b.counter.3__AT2)))
(let ((.def_784 (or .def_14 .def_783)))
(let ((.def_786 (and .def_784 .def_785)))
(let ((.def_792 (and .def_786 .def_791)))
(let ((.def_797 (and .def_792 .def_796)))
(let ((.def_775 (<= 0.0 b.delta__AT1)))
(let ((.def_448 (not b.EVENT.0__AT1)))
(let ((.def_446 (not b.EVENT.1__AT1)))
(let ((.def_621 (and .def_446 .def_448)))
(let ((.def_623 (not .def_621)))
(let ((.def_776 (or .def_623 .def_775)))
(let ((.def_777 (or b.EVENT.1__AT1 .def_776)))
(let ((.def_661 (= b.bool_atom__AT1 b.bool_atom__AT2)))
(let ((.def_657 (= b.counter.0__AT2 b.counter.0__AT1)))
(let ((.def_655 (= b.counter.1__AT2 b.counter.1__AT1)))
(let ((.def_653 (= b.counter.2__AT2 b.counter.2__AT1)))
(let ((.def_652 (= b.counter.3__AT2 b.counter.3__AT1)))
(let ((.def_654 (and .def_652 .def_653)))
(let ((.def_656 (and .def_654 .def_655)))
(let ((.def_658 (and .def_656 .def_657)))
(let ((.def_771 (and .def_658 .def_661)))
(let ((.def_772 (or .def_623 .def_771)))
(let ((.def_773 (or b.EVENT.1__AT1 .def_772)))
(let ((.def_754 (* b.speed_y__AT1 b.delta__AT1)))
(let ((.def_755 (* 10.0 .def_754)))
(let ((.def_756 (* (- 10.0) b.y__AT2)))
(let ((.def_762 (+ .def_756 .def_755)))
(let ((.def_472 (* b.delta__AT1 b.delta__AT1)))
(let ((.def_758 (* (- 49.0) .def_472)))
(let ((.def_763 (+ .def_758 .def_762)))
(let ((.def_760 (* 10.0 b.y__AT1)))
(let ((.def_764 (+ .def_760 .def_763)))
(let ((.def_765 (= .def_764 0.0 )))
(let ((.def_749 (* (- 5.0) b.speed_y__AT2)))
(let ((.def_552 (* (- 49.0) b.delta__AT1)))
(let ((.def_750 (+ .def_552 .def_749)))
(let ((.def_553 (* 5.0 b.speed_y__AT1)))
(let ((.def_751 (+ .def_553 .def_750)))
(let ((.def_752 (= .def_751 0.0 )))
(let ((.def_745 (* (- 1.0) b.x__AT2)))
(let ((.def_470 (* b.speed_x__AT1 b.delta__AT1)))
(let ((.def_746 (+ .def_470 .def_745)))
(let ((.def_747 (+ b.x__AT1 .def_746)))
(let ((.def_748 (= .def_747 0.0 )))
(let ((.def_753 (and .def_748 .def_752)))
(let ((.def_766 (and .def_753 .def_765)))
(let ((.def_647 (= b.speed_x__AT1 b.speed_x__AT2)))
(let ((.def_767 (and .def_647 .def_766)))
(let ((.def_768 (or .def_623 .def_767)))
(let ((.def_644 (= b.y__AT1 b.y__AT2)))
(let ((.def_641 (= b.x__AT1 b.x__AT2)))
(let ((.def_739 (and .def_641 .def_644)))
(let ((.def_740 (and .def_647 .def_739)))
(let ((.def_650 (= b.speed_y__AT1 b.speed_y__AT2)))
(let ((.def_741 (and .def_650 .def_740)))
(let ((.def_736 (= b.delta__AT1 0.0 )))
(let ((.def_737 (and .def_621 .def_736)))
(let ((.def_738 (not .def_737)))
(let ((.def_742 (or .def_738 .def_741)))
(let ((.def_743 (or b.EVENT.1__AT1 .def_742)))
(let ((.def_728 (and .def_647 .def_650)))
(let ((.def_729 (and .def_658 .def_728)))
(let ((.def_730 (or b.bool_atom__AT1 .def_729)))
(let ((.def_704 (or .def_9 b.counter.0__AT1)))
(let ((.def_703 (or b.counter.0__AT2 .def_359)))
(let ((.def_705 (and .def_703 .def_704)))
(let ((.def_706 (and .def_6 .def_705)))
(let ((.def_707 (or b.counter.1__AT1 .def_706)))
(let ((.def_702 (or b.counter.1__AT2 .def_349)))
(let ((.def_708 (and .def_702 .def_707)))
(let ((.def_719 (and .def_4 .def_708)))
(let ((.def_720 (or b.counter.2__AT1 .def_719)))
(let ((.def_714 (and .def_6 .def_359)))
(let ((.def_715 (or b.counter.1__AT1 .def_714)))
(let ((.def_716 (and .def_702 .def_715)))
(let ((.def_717 (and b.counter.2__AT2 .def_716)))
(let ((.def_718 (or .def_354 .def_717)))
(let ((.def_721 (and .def_718 .def_720)))
(let ((.def_722 (and b.counter.3__AT2 .def_721)))
(let ((.def_723 (or b.counter.3__AT1 .def_722)))
(let ((.def_709 (and b.counter.2__AT2 .def_708)))
(let ((.def_710 (or b.counter.2__AT1 .def_709)))
(let ((.def_698 (or b.counter.1__AT2 b.counter.1__AT1)))
(let ((.def_696 (and .def_6 b.counter.0__AT2)))
(let ((.def_697 (or .def_349 .def_696)))
(let ((.def_699 (and .def_697 .def_698)))
(let ((.def_700 (and .def_4 .def_699)))
(let ((.def_701 (or .def_354 .def_700)))
(let ((.def_711 (and .def_701 .def_710)))
(let ((.def_712 (and .def_14 .def_711)))
(let ((.def_713 (or .def_368 .def_712)))
(let ((.def_724 (and .def_713 .def_723)))
(let ((.def_343 (* b.speed_y__AT1 b.speed_y__AT1)))
(let ((.def_336 (* b.speed_x__AT1 b.speed_x__AT1)))
(let ((.def_686 (+ .def_336 .def_343)))
(let ((.def_324 (* (- 1.0) b.speed_loss__AT0)))
(let ((.def_325 (+ 1.0 .def_324)))
(let ((.def_337 (* .def_325 .def_325)))
(let ((.def_687 (* .def_337 .def_686)))
(let ((.def_688 (* (- 1.0) .def_687)))
(let ((.def_692 (+ .def_688 .def_690)))
(let ((.def_685 (* b.speed_x__AT2 b.speed_x__AT2)))
(let ((.def_693 (+ .def_685 .def_692)))
(let ((.def_694 (= .def_693 0.0 )))
(let ((.def_322 (* 2.0 b.y__AT1)))
(let ((.def_677 (* .def_322 .def_325)))
(let ((.def_678 (* b.speed_y__AT1 .def_677)))
(let ((.def_675 (* b.speed_x__AT1 .def_325)))
(let ((.def_681 (+ .def_675 .def_678)))
(let ((.def_673 (* 2.0 b.y__AT2)))
(let ((.def_674 (* b.speed_y__AT2 .def_673)))
(let ((.def_682 (+ .def_674 .def_681)))
(let ((.def_683 (+ b.speed_x__AT2 .def_682)))
(let ((.def_684 (= .def_683 0.0 )))
(let ((.def_695 (and .def_684 .def_694)))
(let ((.def_725 (and .def_695 .def_724)))
(let ((.def_672 (not b.bool_atom__AT1)))
(let ((.def_726 (or .def_672 .def_725)))
(let ((.def_323 (* b.speed_y__AT1 .def_322)))
(let ((.def_667 (+ b.speed_x__AT1 .def_323)))
(let ((.def_668 (<= 0.0 .def_667)))
(let ((.def_669 (not .def_668)))
(let ((.def_451 (* b.y__AT1 b.y__AT1)))
(let ((.def_452 (+ b.x__AT1 .def_451)))
(let ((.def_666 (= .def_452 0.0 )))
(let ((.def_670 (and .def_666 .def_669)))
(let ((.def_671 (= b.bool_atom__AT1 .def_670)))
(let ((.def_727 (and .def_671 .def_726)))
(let ((.def_731 (and .def_727 .def_730)))
(let ((.def_732 (and .def_641 .def_731)))
(let ((.def_733 (and .def_644 .def_732)))
(let ((.def_734 (or .def_621 .def_733)))
(let ((.def_735 (or b.EVENT.1__AT1 .def_734)))
(let ((.def_744 (and .def_735 .def_743)))
(let ((.def_769 (and .def_744 .def_768)))
(let ((.def_628 (= b.time__AT1 b.time__AT2)))
(let ((.def_642 (and .def_628 .def_641)))
(let ((.def_645 (and .def_642 .def_644)))
(let ((.def_648 (and .def_645 .def_647)))
(let ((.def_651 (and .def_648 .def_650)))
(let ((.def_659 (and .def_651 .def_658)))
(let ((.def_662 (and .def_659 .def_661)))
(let ((.def_663 (or .def_446 .def_662)))
(let ((.def_631 (* (- 1.0) b.time__AT2)))
(let ((.def_634 (+ b.delta__AT1 .def_631)))
(let ((.def_635 (+ b.time__AT1 .def_634)))
(let ((.def_636 (= .def_635 0.0 )))
(let ((.def_637 (or .def_623 .def_636)))
(let ((.def_638 (or b.EVENT.1__AT1 .def_637)))
(let ((.def_629 (or .def_621 .def_628)))
(let ((.def_630 (or b.EVENT.1__AT1 .def_629)))
(let ((.def_639 (and .def_630 .def_638)))
(let ((.def_664 (and .def_639 .def_663)))
(let ((.def_625 (= .def_623 b.event_is_timed__AT2)))
(let ((.def_622 (= b.event_is_timed__AT1 .def_621)))
(let ((.def_626 (and .def_622 .def_625)))
(let ((.def_665 (and .def_626 .def_664)))
(let ((.def_770 (and .def_665 .def_769)))
(let ((.def_774 (and .def_770 .def_773)))
(let ((.def_778 (and .def_774 .def_777)))
(let ((.def_779 (and .def_446 .def_778)))
(let ((.def_798 (and .def_779 .def_797)))
(let ((.def_810 (and .def_798 .def_809)))
(let ((.def_477 (* (- (/ 49 10)) b.speed_y__AT1)))
(let ((.def_508 (* 3.0 .def_477)))
(let ((.def_576 (* (- 1.0) .def_508)))
(let ((.def_597 (* 2.0 .def_576)))
(let ((.def_606 (* (- 1.0) .def_597)))
(let ((.def_607 (* b.delta__AT1 .def_606)))
(let ((.def_608 (* (- 50.0) .def_607)))
(let ((.def_535 (* (- 7203.0) .def_472)))
(let ((.def_609 (+ .def_535 .def_608)))
(let ((.def_537 (* (- 50.0) .def_343)))
(let ((.def_610 (+ .def_537 .def_609)))
(let ((.def_539 (* 490.0 b.y__AT1)))
(let ((.def_611 (+ .def_539 .def_610)))
(let ((.def_612 (<= .def_611 0.0 )))
(let ((.def_545 (* (- 5.0) .def_343)))
(let ((.def_546 (* 49.0 b.y__AT1)))
(let ((.def_548 (+ .def_546 .def_545)))
(let ((.def_549 (<= .def_548 0.0 )))
(let ((.def_613 (and .def_549 .def_612)))
(let ((.def_555 (+ .def_553 .def_552)))
(let ((.def_559 (<= 0.0 .def_555)))
(let ((.def_558 (<= 0.0 b.speed_y__AT1)))
(let ((.def_560 (and .def_558 .def_559)))
(let ((.def_556 (<= .def_555 0.0 )))
(let ((.def_551 (<= b.speed_y__AT1 0.0 )))
(let ((.def_557 (and .def_551 .def_556)))
(let ((.def_561 (or .def_557 .def_560)))
(let ((.def_614 (and .def_561 .def_613)))
(let ((.def_598 (* b.delta__AT1 .def_597)))
(let ((.def_599 (* 50.0 .def_598)))
(let ((.def_600 (+ .def_535 .def_599)))
(let ((.def_601 (+ .def_537 .def_600)))
(let ((.def_602 (+ .def_539 .def_601)))
(let ((.def_603 (<= 0.0 .def_602)))
(let ((.def_570 (<= 0.0 .def_548)))
(let ((.def_604 (and .def_570 .def_603)))
(let ((.def_605 (and .def_561 .def_604)))
(let ((.def_615 (or .def_605 .def_614)))
(let ((.def_484 (* (- (/ 49 10)) b.y__AT1)))
(let ((.def_515 (* 2.0 .def_484)))
(let ((.def_584 (* (- 1.0) .def_515)))
(let ((.def_585 (* b.delta__AT1 .def_584)))
(let ((.def_586 (* (- 50.0) .def_585)))
(let ((.def_511 (* 2.0 .def_343)))
(let ((.def_580 (* (- 1.0) .def_511)))
(let ((.def_581 (* b.delta__AT1 .def_580)))
(let ((.def_582 (* (- 25.0) .def_581)))
(let ((.def_590 (+ .def_582 .def_586)))
(let ((.def_577 (* .def_472 .def_576)))
(let ((.def_578 (* (- 50.0) .def_577)))
(let ((.def_591 (+ .def_578 .def_590)))
(let ((.def_488 (* b.y__AT1 b.speed_y__AT1)))
(let ((.def_521 (* 50.0 .def_488)))
(let ((.def_592 (+ .def_521 .def_591)))
(let ((.def_473 (* b.delta__AT1 .def_472)))
(let ((.def_519 (* 2401.0 .def_473)))
(let ((.def_593 (+ .def_519 .def_592)))
(let ((.def_523 (* 25.0 b.speed_x__AT1)))
(let ((.def_594 (+ .def_523 .def_593)))
(let ((.def_595 (<= .def_594 0.0 )))
(let ((.def_505 (* 2.0 .def_488)))
(let ((.def_506 (+ b.speed_x__AT1 .def_505)))
(let ((.def_575 (<= .def_506 0.0 )))
(let ((.def_596 (and .def_575 .def_595)))
(let ((.def_616 (and .def_596 .def_615)))
(let ((.def_532 (* 2.0 .def_508)))
(let ((.def_563 (* (- 1.0) .def_532)))
(let ((.def_564 (* b.delta__AT1 .def_563)))
(let ((.def_565 (* 50.0 .def_564)))
(let ((.def_566 (+ .def_535 .def_565)))
(let ((.def_567 (+ .def_537 .def_566)))
(let ((.def_568 (+ .def_539 .def_567)))
(let ((.def_569 (<= 0.0 .def_568)))
(let ((.def_571 (and .def_569 .def_570)))
(let ((.def_572 (and .def_561 .def_571)))
(let ((.def_533 (* b.delta__AT1 .def_532)))
(let ((.def_534 (* (- 50.0) .def_533)))
(let ((.def_541 (+ .def_535 .def_534)))
(let ((.def_542 (+ .def_537 .def_541)))
(let ((.def_543 (+ .def_539 .def_542)))
(let ((.def_544 (<= .def_543 0.0 )))
(let ((.def_550 (and .def_544 .def_549)))
(let ((.def_562 (and .def_550 .def_561)))
(let ((.def_573 (or .def_562 .def_572)))
(let ((.def_516 (* b.delta__AT1 .def_515)))
(let ((.def_517 (* 50.0 .def_516)))
(let ((.def_512 (* b.delta__AT1 .def_511)))
(let ((.def_513 (* 25.0 .def_512)))
(let ((.def_525 (+ .def_513 .def_517)))
(let ((.def_509 (* .def_472 .def_508)))
(let ((.def_510 (* 50.0 .def_509)))
(let ((.def_526 (+ .def_510 .def_525)))
(let ((.def_527 (+ .def_521 .def_526)))
(let ((.def_528 (+ .def_519 .def_527)))
(let ((.def_529 (+ .def_523 .def_528)))
(let ((.def_530 (<= 0.0 .def_529)))
(let ((.def_507 (<= 0.0 .def_506)))
(let ((.def_531 (and .def_507 .def_530)))
(let ((.def_574 (and .def_531 .def_573)))
(let ((.def_617 (or .def_574 .def_616)))
(let ((.def_489 (* b.delta__AT1 .def_488)))
(let ((.def_490 (* 200.0 .def_489)))
(let ((.def_485 (* .def_472 .def_484)))
(let ((.def_486 (* 200.0 .def_485)))
(let ((.def_496 (+ .def_486 .def_490)))
(let ((.def_481 (* .def_343 .def_472)))
(let ((.def_482 (* 100.0 .def_481)))
(let ((.def_497 (+ .def_482 .def_496)))
(let ((.def_478 (* .def_473 .def_477)))
(let ((.def_479 (* 200.0 .def_478)))
(let ((.def_498 (+ .def_479 .def_497)))
(let ((.def_474 (* b.delta__AT1 .def_473)))
(let ((.def_475 (* 2401.0 .def_474)))
(let ((.def_499 (+ .def_475 .def_498)))
(let ((.def_471 (* 100.0 .def_470)))
(let ((.def_500 (+ .def_471 .def_499)))
(let ((.def_492 (* 100.0 .def_451)))
(let ((.def_501 (+ .def_492 .def_500)))
(let ((.def_494 (* 100.0 b.x__AT1)))
(let ((.def_502 (+ .def_494 .def_501)))
(let ((.def_503 (<= 0.0 .def_502)))
(let ((.def_453 (<= 0.0 .def_452)))
(let ((.def_504 (and .def_453 .def_503)))
(let ((.def_618 (and .def_504 .def_617)))
(let ((.def_619 (and .def_78 .def_618)))
(let ((.def_47 (not b.counter.0__AT0)))
(let ((.def_462 (or b.counter.1__AT0 .def_47)))
(let ((.def_463 (or b.counter.2__AT0 .def_462)))
(let ((.def_50 (not b.counter.2__AT0)))
(let ((.def_45 (not b.counter.1__AT0)))
(let ((.def_48 (and .def_45 .def_47)))
(let ((.def_461 (or .def_48 .def_50)))
(let ((.def_464 (and .def_461 .def_463)))
(let ((.def_465 (or b.counter.3__AT0 .def_464)))
(let ((.def_458 (or .def_48 b.counter.2__AT0)))
(let ((.def_457 (or .def_45 .def_50)))
(let ((.def_459 (and .def_457 .def_458)))
(let ((.def_53 (not b.counter.3__AT0)))
(let ((.def_460 (or .def_53 .def_459)))
(let ((.def_466 (and .def_460 .def_465)))
(let ((.def_454 (and .def_78 .def_453)))
(let ((.def_449 (or .def_446 .def_448)))
(let ((.def_439 (or .def_349 .def_359)))
(let ((.def_443 (or b.counter.3__AT1 .def_439)))
(let ((.def_440 (or b.counter.2__AT1 .def_439)))
(let ((.def_438 (or .def_354 .def_359)))
(let ((.def_441 (and .def_438 .def_440)))
(let ((.def_442 (or .def_368 .def_441)))
(let ((.def_444 (and .def_442 .def_443)))
(let ((.def_450 (and .def_444 .def_449)))
(let ((.def_455 (and .def_450 .def_454)))
(let ((.def_433 (<= 0.0 b.delta__AT0)))
(let ((.def_66 (not b.EVENT.0__AT0)))
(let ((.def_64 (not b.EVENT.1__AT0)))
(let ((.def_263 (and .def_64 .def_66)))
(let ((.def_265 (not .def_263)))
(let ((.def_434 (or .def_265 .def_433)))
(let ((.def_435 (or b.EVENT.1__AT0 .def_434)))
(let ((.def_308 (= b.bool_atom__AT0 b.bool_atom__AT1)))
(let ((.def_303 (= b.counter.0__AT0 b.counter.0__AT1)))
(let ((.def_300 (= b.counter.1__AT0 b.counter.1__AT1)))
(let ((.def_297 (= b.counter.2__AT0 b.counter.2__AT1)))
(let ((.def_295 (= b.counter.3__AT0 b.counter.3__AT1)))
(let ((.def_298 (and .def_295 .def_297)))
(let ((.def_301 (and .def_298 .def_300)))
(let ((.def_304 (and .def_301 .def_303)))
(let ((.def_429 (and .def_304 .def_308)))
(let ((.def_430 (or .def_265 .def_429)))
(let ((.def_431 (or b.EVENT.1__AT0 .def_430)))
(let ((.def_411 (* b.speed_y__AT0 b.delta__AT0)))
(let ((.def_412 (* 10.0 .def_411)))
(let ((.def_416 (* (- 10.0) b.y__AT1)))
(let ((.def_420 (+ .def_416 .def_412)))
(let ((.def_87 (* b.delta__AT0 b.delta__AT0)))
(let ((.def_413 (* (- 49.0) .def_87)))
(let ((.def_421 (+ .def_413 .def_420)))
(let ((.def_418 (* 10.0 b.y__AT0)))
(let ((.def_422 (+ .def_418 .def_421)))
(let ((.def_423 (= .def_422 0.0 )))
(let ((.def_406 (* (- 5.0) b.speed_y__AT1)))
(let ((.def_183 (* (- 49.0) b.delta__AT0)))
(let ((.def_407 (+ .def_183 .def_406)))
(let ((.def_184 (* 5.0 b.speed_y__AT0)))
(let ((.def_408 (+ .def_184 .def_407)))
(let ((.def_409 (= .def_408 0.0 )))
(let ((.def_402 (* (- 1.0) b.x__AT1)))
(let ((.def_84 (* b.speed_x__AT0 b.delta__AT0)))
(let ((.def_403 (+ .def_84 .def_402)))
(let ((.def_404 (+ b.x__AT0 .def_403)))
(let ((.def_405 (= .def_404 0.0 )))
(let ((.def_410 (and .def_405 .def_409)))
(let ((.def_424 (and .def_410 .def_423)))
(let ((.def_289 (= b.speed_x__AT0 b.speed_x__AT1)))
(let ((.def_425 (and .def_289 .def_424)))
(let ((.def_426 (or .def_265 .def_425)))
(let ((.def_286 (= b.y__AT0 b.y__AT1)))
(let ((.def_283 (= b.x__AT0 b.x__AT1)))
(let ((.def_396 (and .def_283 .def_286)))
(let ((.def_397 (and .def_289 .def_396)))
(let ((.def_292 (= b.speed_y__AT0 b.speed_y__AT1)))
(let ((.def_398 (and .def_292 .def_397)))
(let ((.def_393 (= b.delta__AT0 0.0 )))
(let ((.def_394 (and .def_263 .def_393)))
(let ((.def_395 (not .def_394)))
(let ((.def_399 (or .def_395 .def_398)))
(let ((.def_400 (or b.EVENT.1__AT0 .def_399)))
(let ((.def_385 (and .def_289 .def_292)))
(let ((.def_386 (and .def_304 .def_385)))
(let ((.def_387 (or b.bool_atom__AT0 .def_386)))
(let ((.def_360 (or b.counter.0__AT0 .def_359)))
(let ((.def_358 (or .def_47 b.counter.0__AT1)))
(let ((.def_361 (and .def_358 .def_360)))
(let ((.def_362 (and .def_349 .def_361)))
(let ((.def_363 (or b.counter.1__AT0 .def_362)))
(let ((.def_357 (or .def_45 b.counter.1__AT1)))
(let ((.def_364 (and .def_357 .def_363)))
(let ((.def_376 (and .def_354 .def_364)))
(let ((.def_377 (or b.counter.2__AT0 .def_376)))
(let ((.def_371 (and .def_47 .def_349)))
(let ((.def_372 (or b.counter.1__AT0 .def_371)))
(let ((.def_373 (and .def_357 .def_372)))
(let ((.def_374 (and b.counter.2__AT1 .def_373)))
(let ((.def_375 (or .def_50 .def_374)))
(let ((.def_378 (and .def_375 .def_377)))
(let ((.def_379 (and b.counter.3__AT1 .def_378)))
(let ((.def_380 (or b.counter.3__AT0 .def_379)))
(let ((.def_365 (and b.counter.2__AT1 .def_364)))
(let ((.def_366 (or b.counter.2__AT0 .def_365)))
(let ((.def_352 (or b.counter.1__AT0 b.counter.1__AT1)))
(let ((.def_350 (and b.counter.0__AT1 .def_349)))
(let ((.def_351 (or .def_45 .def_350)))
(let ((.def_353 (and .def_351 .def_352)))
(let ((.def_355 (and .def_353 .def_354)))
(let ((.def_356 (or .def_50 .def_355)))
(let ((.def_367 (and .def_356 .def_366)))
(let ((.def_369 (and .def_367 .def_368)))
(let ((.def_370 (or .def_53 .def_369)))
(let ((.def_381 (and .def_370 .def_380)))
(let ((.def_338 (* b.speed_x__AT0 b.speed_x__AT0)))
(let ((.def_101 (* b.speed_y__AT0 b.speed_y__AT0)))
(let ((.def_339 (+ .def_101 .def_338)))
(let ((.def_340 (* .def_337 .def_339)))
(let ((.def_341 (* (- 1.0) .def_340)))
(let ((.def_345 (+ .def_341 .def_343)))
(let ((.def_346 (+ .def_336 .def_345)))
(let ((.def_347 (= .def_346 0.0 )))
(let ((.def_314 (* 2.0 b.y__AT0)))
(let ((.def_328 (* .def_314 .def_325)))
(let ((.def_329 (* b.speed_y__AT0 .def_328)))
(let ((.def_326 (* b.speed_x__AT0 .def_325)))
(let ((.def_332 (+ .def_326 .def_329)))
(let ((.def_333 (+ .def_323 .def_332)))
(let ((.def_334 (+ b.speed_x__AT1 .def_333)))
(let ((.def_335 (= .def_334 0.0 )))
(let ((.def_348 (and .def_335 .def_347)))
(let ((.def_382 (and .def_348 .def_381)))
(let ((.def_321 (not b.bool_atom__AT0)))
(let ((.def_383 (or .def_321 .def_382)))
(let ((.def_315 (* b.speed_y__AT0 .def_314)))
(let ((.def_316 (+ b.speed_x__AT0 .def_315)))
(let ((.def_317 (<= 0.0 .def_316)))
(let ((.def_318 (not .def_317)))
(let ((.def_69 (* b.y__AT0 b.y__AT0)))
(let ((.def_70 (+ b.x__AT0 .def_69)))
(let ((.def_313 (= .def_70 0.0 )))
(let ((.def_319 (and .def_313 .def_318)))
(let ((.def_320 (= b.bool_atom__AT0 .def_319)))
(let ((.def_384 (and .def_320 .def_383)))
(let ((.def_388 (and .def_384 .def_387)))
(let ((.def_389 (and .def_283 .def_388)))
(let ((.def_390 (and .def_286 .def_389)))
(let ((.def_391 (or .def_263 .def_390)))
(let ((.def_392 (or b.EVENT.1__AT0 .def_391)))
(let ((.def_401 (and .def_392 .def_400)))
(let ((.def_427 (and .def_401 .def_426)))
(let ((.def_270 (= b.time__AT0 b.time__AT1)))
(let ((.def_284 (and .def_270 .def_283)))
(let ((.def_287 (and .def_284 .def_286)))
(let ((.def_290 (and .def_287 .def_289)))
(let ((.def_293 (and .def_290 .def_292)))
(let ((.def_305 (and .def_293 .def_304)))
(let ((.def_309 (and .def_305 .def_308)))
(let ((.def_310 (or .def_64 .def_309)))
(let ((.def_273 (* (- 1.0) b.time__AT1)))
(let ((.def_276 (+ b.delta__AT0 .def_273)))
(let ((.def_277 (+ b.time__AT0 .def_276)))
(let ((.def_278 (= .def_277 0.0 )))
(let ((.def_279 (or .def_265 .def_278)))
(let ((.def_280 (or b.EVENT.1__AT0 .def_279)))
(let ((.def_271 (or .def_263 .def_270)))
(let ((.def_272 (or b.EVENT.1__AT0 .def_271)))
(let ((.def_281 (and .def_272 .def_280)))
(let ((.def_311 (and .def_281 .def_310)))
(let ((.def_267 (= .def_265 b.event_is_timed__AT1)))
(let ((.def_264 (= b.event_is_timed__AT0 .def_263)))
(let ((.def_268 (and .def_264 .def_267)))
(let ((.def_312 (and .def_268 .def_311)))
(let ((.def_428 (and .def_312 .def_427)))
(let ((.def_432 (and .def_428 .def_431)))
(let ((.def_436 (and .def_432 .def_435)))
(let ((.def_437 (and .def_64 .def_436)))
(let ((.def_456 (and .def_437 .def_455)))
(let ((.def_467 (and .def_456 .def_466)))
(let ((.def_96 (* (- (/ 49 10)) b.speed_y__AT0)))
(let ((.def_130 (* 3.0 .def_96)))
(let ((.def_211 (* (- 1.0) .def_130)))
(let ((.def_233 (* 2.0 .def_211)))
(let ((.def_245 (* (- 1.0) .def_233)))
(let ((.def_246 (* b.delta__AT0 .def_245)))
(let ((.def_247 (* (- 50.0) .def_246)))
(let ((.def_164 (* (- 50.0) .def_101)))
(let ((.def_251 (+ .def_164 .def_247)))
(let ((.def_162 (* (- 7203.0) .def_87)))
(let ((.def_252 (+ .def_162 .def_251)))
(let ((.def_167 (* 490.0 b.y__AT0)))
(let ((.def_253 (+ .def_167 .def_252)))
(let ((.def_254 (<= .def_253 0.0 )))
(let ((.def_175 (* (- 5.0) .def_101)))
(let ((.def_176 (* 49.0 b.y__AT0)))
(let ((.def_178 (+ .def_176 .def_175)))
(let ((.def_179 (<= .def_178 0.0 )))
(let ((.def_255 (and .def_179 .def_254)))
(let ((.def_186 (+ .def_184 .def_183)))
(let ((.def_190 (<= 0.0 .def_186)))
(let ((.def_189 (<= 0.0 b.speed_y__AT0)))
(let ((.def_191 (and .def_189 .def_190)))
(let ((.def_187 (<= .def_186 0.0 )))
(let ((.def_181 (<= b.speed_y__AT0 0.0 )))
(let ((.def_188 (and .def_181 .def_187)))
(let ((.def_192 (or .def_188 .def_191)))
(let ((.def_256 (and .def_192 .def_255)))
(let ((.def_234 (* b.delta__AT0 .def_233)))
(let ((.def_235 (* 50.0 .def_234)))
(let ((.def_239 (+ .def_164 .def_235)))
(let ((.def_240 (+ .def_162 .def_239)))
(let ((.def_241 (+ .def_167 .def_240)))
(let ((.def_242 (<= 0.0 .def_241)))
(let ((.def_205 (<= 0.0 .def_178)))
(let ((.def_243 (and .def_205 .def_242)))
(let ((.def_244 (and .def_192 .def_243)))
(let ((.def_257 (or .def_244 .def_256)))
(let ((.def_105 (* (- (/ 49 10)) b.y__AT0)))
(let ((.def_139 (* 2.0 .def_105)))
(let ((.def_220 (* (- 1.0) .def_139)))
(let ((.def_221 (* b.delta__AT0 .def_220)))
(let ((.def_222 (* (- 50.0) .def_221)))
(let ((.def_134 (* 2.0 .def_101)))
(let ((.def_215 (* (- 1.0) .def_134)))
(let ((.def_216 (* b.delta__AT0 .def_215)))
(let ((.def_218 (* (- 25.0) .def_216)))
(let ((.def_226 (+ .def_218 .def_222)))
(let ((.def_212 (* .def_87 .def_211)))
(let ((.def_213 (* (- 50.0) .def_212)))
(let ((.def_227 (+ .def_213 .def_226)))
(let ((.def_109 (* b.y__AT0 b.speed_y__AT0)))
(let ((.def_145 (* 50.0 .def_109)))
(let ((.def_228 (+ .def_145 .def_227)))
(let ((.def_88 (* b.delta__AT0 .def_87)))
(let ((.def_143 (* 2401.0 .def_88)))
(let ((.def_229 (+ .def_143 .def_228)))
(let ((.def_147 (* 25.0 b.speed_x__AT0)))
(let ((.def_230 (+ .def_147 .def_229)))
(let ((.def_231 (<= .def_230 0.0 )))
(let ((.def_126 (* 2.0 .def_109)))
(let ((.def_127 (+ b.speed_x__AT0 .def_126)))
(let ((.def_210 (<= .def_127 0.0 )))
(let ((.def_232 (and .def_210 .def_231)))
(let ((.def_258 (and .def_232 .def_257)))
(let ((.def_156 (* 2.0 .def_130)))
(let ((.def_195 (* (- 1.0) .def_156)))
(let ((.def_196 (* b.delta__AT0 .def_195)))
(let ((.def_197 (* 50.0 .def_196)))
(let ((.def_201 (+ .def_164 .def_197)))
(let ((.def_202 (+ .def_162 .def_201)))
(let ((.def_203 (+ .def_167 .def_202)))
(let ((.def_204 (<= 0.0 .def_203)))
(let ((.def_206 (and .def_204 .def_205)))
(let ((.def_207 (and .def_192 .def_206)))
(let ((.def_157 (* b.delta__AT0 .def_156)))
(let ((.def_159 (* (- 50.0) .def_157)))
(let ((.def_169 (+ .def_164 .def_159)))
(let ((.def_170 (+ .def_162 .def_169)))
(let ((.def_171 (+ .def_167 .def_170)))
(let ((.def_172 (<= .def_171 0.0 )))
(let ((.def_180 (and .def_172 .def_179)))
(let ((.def_193 (and .def_180 .def_192)))
(let ((.def_208 (or .def_193 .def_207)))
(let ((.def_140 (* b.delta__AT0 .def_139)))
(let ((.def_141 (* 50.0 .def_140)))
(let ((.def_135 (* b.delta__AT0 .def_134)))
(let ((.def_137 (* 25.0 .def_135)))
(let ((.def_149 (+ .def_137 .def_141)))
(let ((.def_131 (* .def_87 .def_130)))
(let ((.def_133 (* 50.0 .def_131)))
(let ((.def_150 (+ .def_133 .def_149)))
(let ((.def_151 (+ .def_145 .def_150)))
(let ((.def_152 (+ .def_143 .def_151)))
(let ((.def_153 (+ .def_147 .def_152)))
(let ((.def_154 (<= 0.0 .def_153)))
(let ((.def_128 (<= 0.0 .def_127)))
(let ((.def_155 (and .def_128 .def_154)))
(let ((.def_209 (and .def_155 .def_208)))
(let ((.def_259 (or .def_209 .def_258)))
(let ((.def_110 (* b.delta__AT0 .def_109)))
(let ((.def_111 (* 200.0 .def_110)))
(let ((.def_106 (* .def_87 .def_105)))
(let ((.def_107 (* 200.0 .def_106)))
(let ((.def_117 (+ .def_107 .def_111)))
(let ((.def_102 (* .def_87 .def_101)))
(let ((.def_103 (* 100.0 .def_102)))
(let ((.def_118 (+ .def_103 .def_117)))
(let ((.def_97 (* .def_88 .def_96)))
(let ((.def_99 (* 200.0 .def_97)))
(let ((.def_119 (+ .def_99 .def_118)))
(let ((.def_89 (* b.delta__AT0 .def_88)))
(let ((.def_91 (* 2401.0 .def_89)))
(let ((.def_120 (+ .def_91 .def_119)))
(let ((.def_86 (* 100.0 .def_84)))
(let ((.def_121 (+ .def_86 .def_120)))
(let ((.def_113 (* 100.0 .def_69)))
(let ((.def_122 (+ .def_113 .def_121)))
(let ((.def_115 (* 100.0 b.x__AT0)))
(let ((.def_123 (+ .def_115 .def_122)))
(let ((.def_124 (<= 0.0 .def_123)))
(let ((.def_71 (<= 0.0 .def_70)))
(let ((.def_125 (and .def_71 .def_124)))
(let ((.def_260 (and .def_125 .def_259)))
(let ((.def_261 (and .def_78 .def_260)))
(let ((.def_79 (and .def_71 .def_78)))
(let ((.def_67 (or .def_64 .def_66)))
(let ((.def_57 (or .def_45 .def_47)))
(let ((.def_61 (or b.counter.3__AT0 .def_57)))
(let ((.def_58 (or b.counter.2__AT0 .def_57)))
(let ((.def_56 (or .def_47 .def_50)))
(let ((.def_59 (and .def_56 .def_58)))
(let ((.def_60 (or .def_53 .def_59)))
(let ((.def_62 (and .def_60 .def_61)))
(let ((.def_68 (and .def_62 .def_67)))
(let ((.def_80 (and .def_68 .def_79)))
(let ((.def_51 (and .def_48 .def_50)))
(let ((.def_54 (and .def_51 .def_53)))
(let ((.def_42 (= b.speed_y__AT0 1.0 )))
(let ((.def_39 (= b.speed_x__AT0 1.0 )))
(let ((.def_35 (= b.y__AT0 10.0 )))
(let ((.def_31 (= b.x__AT0 (- 9.0) )))
(let ((.def_25 (= b.time__AT0 0.0 )))
(let ((.def_27 (and .def_25 b.event_is_timed__AT0)))
(let ((.def_32 (and .def_27 .def_31)))
(let ((.def_36 (and .def_32 .def_35)))
(let ((.def_40 (and .def_36 .def_39)))
(let ((.def_43 (and .def_40 .def_42)))
(let ((.def_55 (and .def_43 .def_54)))
(let ((.def_81 (and .def_55 .def_80)))
(let ((.def_17 (or b.counter.1__AT2 .def_9)))
(let ((.def_18 (or b.counter.2__AT2 .def_17)))
(let ((.def_10 (and .def_6 .def_9)))
(let ((.def_16 (or .def_4 .def_10)))
(let ((.def_19 (and .def_16 .def_18)))
(let ((.def_20 (or b.counter.3__AT2 .def_19)))
(let ((.def_11 (or b.counter.2__AT2 .def_10)))
(let ((.def_7 (or .def_4 .def_6)))
(let ((.def_12 (and .def_7 .def_11)))
(let ((.def_15 (or .def_12 .def_14)))
(let ((.def_21 (and .def_15 .def_20)))
(let ((.def_22 (not .def_21)))
(let ((.def_82 (and .def_22 .def_81)))
(let ((.def_262 (and .def_82 .def_261)))
(let ((.def_468 (and .def_262 .def_467)))
(let ((.def_620 (and .def_468 .def_619)))
(let ((.def_811 (and .def_620 .def_810)))
(let ((.def_963 (and .def_811 .def_962)))
.def_963)))))))))))))))))))))))))))))))))))))))))))))))))))))))))))))))))))))))))))))))))))))))))))))))))))))))))))))))))))))))))))))))))))))))))))))))))))))))))))))))))))))))))))))))))))))))))))))))))))))))))))))))))))))))))))))))))))))))))))))))))))))))))))))))))))))))))))))))))))))))))))))))))))))))))))))))))))))))))))))))))))))))))))))))))))))))))))))))))))))))))))))))))))))))))))))))))))))))))))))))))))))))))))))))))))))))))))))))))))))))))))))))))))))))))))))))))))))))))))))))))))))))))))))))))))))))))))))))))))))))))))))))))))))))))))))))))))))))))))))))))))))))))))))))))))))))))))))))))))))))))))))))))))))))))))))))))))))))))))))))))))))))))))))))))))))))))))))))))))))))))))))))))))))))))))))))))))))))))))))))))))))))))))))))))))))))))))))))))))))))))))))))))))))))))))))))))))))))))))))
(check-sat)
(exit)
